(declare-const |phi_tmp___4:44:46| Int)
(declare-const |phi_tmp___4:47| Int)
(declare-const |x2':83:100| Int)
(declare-const havoc Int)
(declare-const |havoc:2| Int)
(declare-const |c1':85:102| Int)
(declare-const |x3':84:98| Int)
(declare-const |x1':82:99| Int)
(declare-const |havoc:24| Int)
(declare-const |K:96:97| Int)
(declare-const |c2':86:101| Int)
(declare-const |phi_tmp___4:30:43:45| Int)
(declare-const |havoc:25| Int)
(declare-const |havoc:4| Int)
(assert (and (<= (- havoc) 0) (<= (- |havoc:2|) 0) (<= (- |havoc:4|) 0)
               (or (not (<= (- |K:96:97|) 0))
                     (= (+ |x2':83:100| |x1':82:99| |x3':84:98| |K:96:97|
                             (- |havoc:4|) (- |havoc:2|) (- havoc)) 0))
               (or (not (<= (- |K:96:97|) 0))
                     (<= (+ |x3':84:98| (- |havoc:4|)) 0))
               (or (not (<= (- |K:96:97|) 0))
                     (<= (+ |x2':83:100| (- |havoc:2|)) 0))
               (or (not (<= (- |K:96:97|) 0))
                     (<= (+ (- |x2':83:100|) (- |x3':84:98|) (- |K:96:97|)
                              |havoc:4| |havoc:2|) 0))
               (or (and (= |K:96:97| 0) (= (+ (- |c2':86:101|) |havoc:25|) 0)
                          (= (+ (- |c1':85:102|) |havoc:24|) 0)
                          (= (+ (- |x3':84:98|) |havoc:4|) 0)
                          (= (+ (- |x2':83:100|) |havoc:2|) 0)
                          (= (+ (- |x1':82:99|) havoc) 0))
                     (and (<= (+ (- |K:96:97|) 1) 0)
                            (<= (+ (- |havoc:4|) 1) 0) (<= (+ (- havoc) 1) 0)
                            (<= (+ (- |havoc:2|) 1) 0) (<= (- |x3':84:98|) 0)
                            (<= (- |x1':82:99|) 0)
                            (<= (+ (- |x1':82:99|) (- |x3':84:98|) 1) 0)
                            (<= (- |x2':83:100|) 0)
                            (<= (+ (- |x2':83:100|) (- |x3':84:98|) 1) 0)
                            (<= (+ (- |x2':83:100|) (- |x1':82:99|) 1) 0)
                            (<= (+ (- |x2':83:100|) (- |x1':82:99|)
                                     (- |x3':84:98|) 2) 0)))
               (<= (- |K:96:97|) 0) (<= (- |x1':82:99|) 0)
               (<= (- |x2':83:100|) 0) (<= (- |x3':84:98|) 0)
               (or (<= |x1':82:99| 0)
                     (and (< (- |x1':82:99|) 0) (<= |x2':83:100| 0))
                     (and (< (- |x1':82:99|) 0) (< (- |x2':83:100|) 0)
                            (<= |x3':84:98| 0)))
               (or (and (not (= |x1':82:99| 0))
                          (or (and (not (= |x2':83:100| 0))
                                     (or (and (not (= |x3':84:98| 0))
                                                (= (- |phi_tmp___4:30:43:45|) 0))
                                           (and (= |x3':84:98| 0)
                                                  (= (+ (- |phi_tmp___4:30:43:45|)
                                                          1) 0)))
                                     (= (+ (- |phi_tmp___4:44:46|)
                                             |phi_tmp___4:30:43:45|) 0))
                                (and (= |x2':83:100| 0)
                                       (= (+ (- |phi_tmp___4:44:46|) 1) 0)))
                          (= (+ (- |phi_tmp___4:47|) |phi_tmp___4:44:46|) 0))
                     (and (= |x1':82:99| 0) (= (+ (- |phi_tmp___4:47|) 1) 0)))
               (= |phi_tmp___4:47| 0)))
(check-sat)
